instances/tuning-use-case-1/ISA901RandomOvenSchedulingInstance-n50-k2-a5--0505-22.33.35.dat
LengthSchedulingHorizon=5239;
nAttributes=5;
SetupCosts=[[0, 0, 0, 0, 0], [2, 2, 2, 2, 2], [2, 2, 2, 2, 2], [2, 2, 2, 2, 2], [2, 2, 2, 2, 2], [2, 2, 2, 2, 2]];
SetupTimes=[[0, 0, 0, 0, 0], [16, 16, 16, 16, 16], [16, 16, 16, 16, 16], [16, 16, 16, 16, 16], [16, 16, 16, 16, 16], [16, 16, 16, 16, 16]];
nMachines=2;
MinCap=[0, 0];
MaxCap=[32, 82];

initState=[1, 3];
nShifts=3;
ShiftStartTimes = [[1060, 3957, 4286], [167, 3513, 4651]];
ShiftEndTimes = [[3309, 4270, 5158], [3139, 4438, 5115]];
nJobs=50;
EligibleMachines = [{2}, {1}, {2}, {1, 2}, {1, 2}, {1, 2}, {2}, {2}, {1}, {2}, {1, 2}, {1, 2}, {1, 2}, {1, 2}, {1, 2}, {1, 2}, {1, 2}, {2}, {2}, {1, 2}, {1}, {1, 2}, {1, 2}, {2}, {2}, {1, 2}, {1}, {1, 2}, {1, 2}, {1, 2}, {1, 2}, {1, 2}, {1}, {2}, {2}, {1, 2}, {1, 2}, {1, 2}, {2}, {1, 2}, {1, 2}, {1}, {1, 2}, {1}, {1, 2}, {2}, {1, 2}, {1, 2}, {1}, {1, 2}];
EarliestStart=[438, 954, 546, 97, 12, 325, 886, 52, 22, 591, 9, 1119, 1110, 843, 331, 82, 340, 619, 836, 668, 1090, 665, 555, 40, 1023, 81, 38, 997, 1044, 164, 368, 1086, 211, 1056, 168, 492, 1083, 556, 597, 744, 938, 455, 463, 654, 4, 585, 670, 697, 116, 457];
LatestEnd=[580, 957, 616, 134, 181, 456, 898, 73, 91, 612, 109, 1203, 1228, 913, 429, 112, 440, 694, 919, 805, 1107, 688, 638, 137, 1158, 105, 148, 1102, 1110, 221, 479, 1089, 256, 1070, 233, 497, 1222, 655, 660, 870, 1021, 469, 510, 737, 31, 699, 681, 754, 175, 482];
MinTime=[96, 3, 48, 23, 92, 74, 7, 17, 49, 18, 94, 77, 74, 65, 53, 20, 78, 54, 50, 75, 10, 23, 52, 73, 79, 19, 77, 56, 57, 50, 75, 3, 33, 9, 35, 4, 75, 51, 43, 78, 47, 8, 32, 42, 16, 73, 7, 31, 51, 14];
MaxTime=[98, 87, 91, 71, 96, 91, 74, 56, 90, 32, 94, 90, 97, 97, 98, 44, 98, 72, 80, 83, 14, 46, 87, 75, 87, 79, 92, 87, 79, 99, 85, 24, 87, 48, 92, 75, 76, 82, 51, 83, 48, 19, 90, 73, 44, 88, 14, 41, 95, 45];
JobSize=[14, 15, 3, 10, 7, 19, 6, 2, 10, 1, 12, 7, 11, 4, 1, 16, 15, 17, 4, 18, 7, 5, 5, 3, 4, 20, 5, 11, 16, 1, 19, 13, 4, 9, 6, 13, 17, 12, 11, 9, 9, 20, 15, 14, 19, 10, 6, 10, 13, 14];
Attribute=[2, 4, 4, 2, 3, 3, 1, 5, 4, 1, 2, 1, 3, 4, 3, 2, 2, 4, 2, 3, 5, 3, 2, 4, 1, 1, 1, 3, 5, 4, 4, 3, 5, 3, 1, 2, 1, 5, 3, 4, 1, 5, 1, 5, 2, 2, 1, 2, 3, 1];

upper_bound_integer_objective=1932000;
mult_factor_total_runtime=32;
mult_factor_finished_toolate=36800;
mult_factor_total_setuptimes=0;
mult_factor_total_setupcosts=184;
running_time_bound=2290;
min_duration=3;
max_duration=96;
max_setup_time=16;
max_setup_cost=2;
